self-compositions/words_1/words_673_SAT.qaiger
aag 62 16 0 1 46
30
8
18
10
20
28
6
32
16
2
12
14
22
4
24
26
125
34 7 3
36 34 5
38 36 9
40 38 11
42 40 13
44 42 15
46 43 14
48 47 45
50 48 22
52 41 12
54 53 43
56 54 20
58 39 10
60 59 18
62 60 41
64 55 21
66 65 57
68 66 62
70 69 57
72 49 23
74 73 51
76 74 71
78 77 51
80 45 25
82 44 24
84 83 81
86 84 78
88 87 36
90 85 79
92 18 8
94 19 9
96 95 93
98 67 63
100 99 69
102 100 13
104 101 12
106 105 103
108 106 97
110 108 91
112 110 88
114 75 70
116 115 77
118 116 14
120 117 15
122 121 119
124 123 112
i0 1 x[6]
i1 2 z[3]
i2 1 x[0]
i3 2 z[4]
i4 1 x[1]
i5 1 x[5]
i6 2 z[2]
i7 1 x[7]
i8 2 z[7]
i9 2 z[0]
i10 2 z[5]
i11 2 z[6]
i12 1 x[2]
i13 2 z[1]
i14 1 x[3]
i15 1 x[4]
o0 bool[0]
c
simplified
  !=
    add
      subtract
        reverse
          1
        2 z
      << 4
        1 x
    2 z
