self-compositions/words_1/words_673_SAT.qaiger.qdimacs
p cnf 62 139
a 9 10 11 12 13 14 15 16 0
e 1 2 3 4 5 6 7 8 17 18 19 20 21 22 23 24 25 26 27 28 29 30 31 32 33 34 35 36 37 38 39 40 41 42 43 44 45 46 47 48 49 50 51 52 53 54 55 56 57 58 59 60 61 62 0
3 1 17 0
-3 -17 0
-1 -17 0
-17 2 18 0
17 -18 0
-2 -18 0
-18 4 19 0
18 -19 0
-4 -19 0
-19 5 20 0
19 -20 0
-5 -20 0
-20 6 21 0
20 -21 0
-6 -21 0
-21 7 22 0
21 -22 0
-7 -22 0
21 -7 23 0
-21 -23 0
7 -23 0
23 22 24 0
-23 -24 0
-22 -24 0
-24 -11 25 0
24 -25 0
11 -25 0
20 -6 26 0
-20 -26 0
6 -26 0
26 21 27 0
-26 -27 0
-21 -27 0
-27 -10 28 0
27 -28 0
10 -28 0
19 -5 29 0
-19 -29 0
5 -29 0
29 -9 30 0
-29 -30 0
9 -30 0
-30 20 31 0
30 -31 0
-20 -31 0
27 10 32 0
-27 -32 0
-10 -32 0
32 28 33 0
-32 -33 0
-28 -33 0
-33 -31 34 0
33 -34 0
31 -34 0
34 28 35 0
-34 -35 0
-28 -35 0
24 11 36 0
-24 -36 0
-11 -36 0
36 25 37 0
-36 -37 0
-25 -37 0
-37 35 38 0
37 -38 0
-35 -38 0
38 25 39 0
-38 -39 0
-25 -39 0
22 12 40 0
-22 -40 0
-12 -40 0
-22 -12 41 0
22 -41 0
12 -41 0
41 40 42 0
-41 -42 0
-40 -42 0
-42 -39 43 0
42 -43 0
39 -43 0
43 -18 44 0
-43 -44 0
18 -44 0
42 39 45 0
-42 -45 0
-39 -45 0
-9 -4 46 0
9 -46 0
4 -46 0
9 4 47 0
-9 -47 0
-4 -47 0
47 46 48 0
-47 -48 0
-46 -48 0
33 31 49 0
-33 -49 0
-31 -49 0
49 34 50 0
-49 -50 0
-34 -50 0
-50 6 51 0
50 -51 0
-6 -51 0
50 -6 52 0
-50 -52 0
6 -52 0
52 51 53 0
-52 -53 0
-51 -53 0
-53 48 54 0
53 -54 0
-48 -54 0
-54 45 55 0
54 -55 0
-45 -55 0
-55 -44 56 0
55 -56 0
44 -56 0
37 -35 57 0
-37 -57 0
35 -57 0
57 38 58 0
-57 -58 0
-38 -58 0
-58 -7 59 0
58 -59 0
7 -59 0
58 7 60 0
-58 -60 0
-7 -60 0
60 59 61 0
-60 -61 0
-59 -61 0
61 -56 62 0
-61 -62 0
56 -62 0
-62 0
